#! STO-3G H2 Hartree-Fock Energy Point
# see also: http://pubchemqc.riken.jp/cgi-bin/molecularquery.py?name=hydrogen

molecule h2 {
H            0.0   0.0   0.0
H            0.0   0.0   1.4
unit bohr
symmetry c1
}

set {
  basis STO-3G
}

en, wfn = energy('hf', return_wfn=True)

Matrix_C = wfn.Ca()
C = np.asarray(Matrix_C)
nbf = wfn.nso()
mints = psi4.core.MintsHelper(wfn.basisset())
Matrix_I = mints.ao_eri()

I = np.asarray(Matrix_I)
for i in range(nbf):
  for j in range(nbf):
    for k in range(nbf):
      for l in range(nbf):
        print (i+1,j+1,k+1,l+1, I[i,j,k,l])
