#! 6-31G N2 FullCI PES

molecule n2 {
N          R    0.0  0.0
N          0.0  0.0  0.0
}

set {
  basis 6-31g
  guess core
}

Rvals=[0.5, 0.6, 0.7, 0.8, 0.9, 1.0, 1.1, 1.2, 1.3, 1.4, 1.5, 1.6, 2.0, 3.0, 4.0, 5.0, 6.0]

set_num_threads(16)

for R in Rvals:
   n2.R = R
   hfene=energy('hf')
   fciene=energy('fci')
   print ('%f %f %f' % ( R, hfene, fciene) )
   clean()  