#! 6-31G N2 FullCI PES

molecule n2 {
N          R    0.0  0.0
N          0.0  0.0  0.0
}

set {
  basis 6-31g
  soscf true
  restart true
}

Rvals=[0.5, 0.6, 0.7, 0.8, 0.9, 1.0, 1.1, 1.2, 1.3, 1.4, 1.5, 1.6, 1.7, 1.8, 1.9, 2.0, 2.1, 2.2, 2.3, 2.4, 2.5, 2.6, 2.7, 2.8, 2.9, 3.0, 3.1, 3.2]
Rvals2=[3.2, 3.5, 4.0, 4.5, 5.0]

for R in Rvals:
   n2.R = R
   hfene=energy('hf')
   ccsdene=energy('ccsd(t)')
   mp2ene=energy('mp2')
   print ('%f %f %f %f' % ( R, hfene, mp2ene, ccsdene) )
#  clean()  

for R in Rvals2:
   n2.R = R
   hfene=energy('hf')
   print ('%f %f' % ( R, hfene) )
